34
0	0
1	600
2	1063
3	0
4	0
5	120
6	1061
7	276
8	5
9	606
10	365
11	159
12	602
13	1962
14	908
15	772
16	363
17	938
18	281
19	0
20	1042
21	1094
22	678
23	1382
24	1958
25	1069
26	1968
27	339
28	1670
29	1953
30	286
31	1965
32	1970
33	1972
